Function: get_partitions took 1.7404556274414062e-05 seconds
Function: map_flows_partitions took 3.0994415283203125e-06 seconds
Building model with:
2 devices, 1 partitions and 1 flows
Using license file /home/anup/gurobi.lic
Academic license - for non-commercial use only
Function: MIP.add_frac_mem_var took 0.00024771690368652344 seconds
Function: MIP.add_coverage_constraints took 0.00024318695068359375 seconds
Function: MIP.add_accuracy_constraints took 9.894371032714844e-05 seconds
Function: MIP.add_capacity_constraints took 0.0002675056457519531 seconds
Changed value of parameter TimeLimit to 120.0
   Prev: inf  Min: 0.0  Max: inf  Default: inf
--------------------------------------------------
Starting model update
Model update took: 6.079673767089844e-05 s
--------------------------------------------------
Starting model optimize
Gurobi Optimizer version 9.0.0 build v9.0.0rc2 (linux64)
Optimize a model with 8 rows, 10 columns and 17 nonzeros
Model fingerprint: 0x3f8af254
Model has 1 general constraint
Variable types: 8 continuous, 2 integer (2 binary)
Coefficient statistics:
  Matrix range     [1e+00, 1e+02]
  Objective range  [1e+00, 1e+00]
  Bounds range     [1e+00, 6e+02]
  RHS range        [1e+00, 1e+00]

---------------------------------------------------------------------------
Multi-objectives: starting optimization with 2 objectives ... 
---------------------------------------------------------------------------

Multi-objectives: applying initial presolve ...
---------------------------------------------------------------------------

Presolve removed 1 rows and 2 columns
Presolve time: 0.00s
Presolved: 7 rows and 8 columns
---------------------------------------------------------------------------

Multi-objectives: optimize objective 1 (max_mem) ...
---------------------------------------------------------------------------

Presolve removed 3 rows and 3 columns
Presolve time: 0.00s
Presolved: 4 rows, 5 columns, 10 nonzeros
Variable types: 2 continuous, 3 integer (3 binary)
Found heuristic solution: objective 101.9414062

Root relaxation: objective 5.097070e+01, 2 iterations, 0.00 seconds

    Nodes    |    Current Node    |     Objective Bounds      |     Work
 Expl Unexpl |  Obj  Depth IntInf | Incumbent    BestBd   Gap | It/Node Time

     0     0 infeasible    0       101.94141  101.94141  0.00%     -    0s

Explored 0 nodes (2 simplex iterations) in 0.00 seconds
Thread count was 8 (of 8 available processors)

Solution count 1: 101.941 

Optimal solution found (tolerance 1.00e-04)
Best objective 1.019414062500e+02, best bound 1.019414062500e+02, gap 0.0000%
---------------------------------------------------------------------------

Multi-objectives: optimize objective 2 (tot_mem) ...
---------------------------------------------------------------------------


Loaded user MIP start with objective 101.941

Presolve removed 3 rows and 3 columns
Presolve time: 0.00s
Presolved: 5 rows, 5 columns, 13 nonzeros
Variable types: 2 continuous, 3 integer (3 binary)

Explored 0 nodes (0 simplex iterations) in 0.00 seconds
Thread count was 8 (of 8 available processors)

Solution count 1: 101.941 

Optimal solution found (tolerance 1.00e-04)
Best objective 1.019414062500e+02, best bound 1.019414062500e+02, gap 0.0000%

---------------------------------------------------------------------------
Multi-objectives: solved in 0.00 seconds, solution count 1

Model optimize took: 0.0038945674896240234 seconds
--------------------------------------------------

Solution quality statistics for model Univmon :
  Maximum violation:
    Bound       : 0.00000000e+00
    Constraint  : 0.00000000e+00
    Integrality : 0.00000000e+00

Sketch (0) (cm: eps0: 0.0003125, del0: 0.05, min_mem: 33.98046875)
Par: 1, Rows: 3
(1.000,1)    (-0.000,0)    
Total frac: 1.000

Device (0) P4_1:
Rows total: 0.0
Mem total: 0.0

Device (1) P4_2:
Rows total: 3.0
Mem total: 101.94140625
--------------------------------------------------

Throughput: 148.0 Mpps, ns per packet: 6.756756756756757
Resources: 2.873779296875
Used Cores: 0, Total CPUS: 0, Switch Memory: 101.94140625

Sketch (0) (cm: eps0: 0.0003125, del0: 0.05, min_mem: 33.98046875)
Par: 1, Rows: 3
(1.000,1)    (-0.000,0)    
Total frac: 1.000

Device (0) P4_1:
Rows total: 0
Mem total: 0.0
Throughput: 148.0

Device (1) P4_2:
Rows total: 3.0
Mem total: 101.94140625
Throughput: 148.0
--------------------------------------------------
Function: MIP.solve took 0.010721921920776367 seconds
Function: solve took 0.010975360870361328 seconds
